set I := 0 1 2 3 4 5 6 7 8 9 10 11 12 13 14 15 16 17 18 19 20 21 22 23 24;

param cap := 150;

param: size:=
    0 100
    1 97
    2 95
    3 90
    4 86
    5 83
    6 80
    7 78
    8 74
    9 70
    10 67
    11 64
    12 60
    13 57
    14 53
    15 49
    16 46
    17 43
    18 41
    19 38
    20 35
    21 32
    22 29
    23 26
    24 23;
